Traveling Salesman Problem/TSP_generados/Aleatorio1621103400_13.tsp
NAME: Aleatorio1621103400_13.tsp
COMMENT: Randomly generated scenario
TYPE: TSP
DIMENSION: 13
EDGE_WEIGHT_TYPE: ATT
NODE_COORD_SECTION
1 42.86 39.02
2 23.85 29.98
3 8.36 11.86
4 4.2 43.85
5 36.39 18.99
6 24.36 31.53
7 43.88 48.69
8 44.65 8.14
9 17.1 35.02
10 27.46 19.52
11 47.43 41.73
12 15.22 40.6
13 39.0 26.18
