Traveling Salesman Problem/TSP_generados/Aleatorio1621103400_13.opt.tour
NAME: Aleatorio1621103400_13.opt.tour
COMMENT: Optimal solution for Aleatorio1621103400_13 (174.28159847797406)
TYPE: TOUR
DIMENSION: 13
TOUR_SECTION
1 11 7 6 2 9 12 4 3 10 5 8 13
-1
EOF
